c A 3SAT instance whose satisfying assignment encodes the subset of [1, 4, 4, 5, 5, 6, 8, 9, 10, 11, 11, 12, 12, 13, 15, 16, 17, 17, 19, 20] that add up to 123
c One possible solution is: [0, 0, 0, 0, 0, 0, 0, 1, 1, 0, 1, 1, 1, 1, 0, 0, 1, 0, 1, 1]
p cnf 416 1795
21 0
-22 0
-23 0
-24 0
25 0
-26 0
-27 0
28 0
29 0
-30 0
31 0
32 0
-33 0
34 0
-35 0
36 0
37 0
-38 0
-39 0
-40 0
41 0
42 0
-43 0
-44 0
45 0
-46 0
47 0
-48 0
49 0
50 0
51 0
-52 0
53 0
54 0
55 0
-56 0
57 0
-58 0
-59 0
60 0
61 0
-62 0
-63 0
64 0
65 0
66 0
-67 0
68 0
69 0
70 0
71 0
72 0
73 0
-74 0
-75 0
-76 0
-77 0
-78 0
79 0
80 0
-81 0
-82 0
-83 0
84 0
85 0
-86 0
-87 0
-88 0
89 0
90 0
91 0
-92 0
-93 0
94 0
-95 0
-96 0
97 0
-98 0
99 0
-100 1 21 0
-100 -1 21 0
-100 1 -21 0
100 -1 -21 0
-101 1 22 0
-101 -1 22 0
-101 1 -22 0
101 -1 -22 0
-102 2 23 0
-102 -2 23 0
-102 2 -23 0
102 -2 -23 0
-103 2 24 0
-103 -2 24 0
-103 2 -24 0
103 -2 -24 0
-104 2 25 0
-104 -2 25 0
-104 2 -25 0
104 -2 -25 0
-105 3 26 0
-105 -3 26 0
-105 3 -26 0
105 -3 -26 0
-106 3 27 0
-106 -3 27 0
-106 3 -27 0
106 -3 -27 0
-107 3 28 0
-107 -3 28 0
-107 3 -28 0
107 -3 -28 0
-108 4 29 0
-108 -4 29 0
-108 4 -29 0
108 -4 -29 0
-109 4 30 0
-109 -4 30 0
-109 4 -30 0
109 -4 -30 0
-110 4 31 0
-110 -4 31 0
-110 4 -31 0
110 -4 -31 0
-111 5 32 0
-111 -5 32 0
-111 5 -32 0
111 -5 -32 0
-112 5 33 0
-112 -5 33 0
-112 5 -33 0
112 -5 -33 0
-113 5 34 0
-113 -5 34 0
-113 5 -34 0
113 -5 -34 0
-114 6 35 0
-114 -6 35 0
-114 6 -35 0
114 -6 -35 0
-115 6 36 0
-115 -6 36 0
-115 6 -36 0
115 -6 -36 0
-116 6 37 0
-116 -6 37 0
-116 6 -37 0
116 -6 -37 0
-117 7 38 0
-117 -7 38 0
-117 7 -38 0
117 -7 -38 0
-118 7 39 0
-118 -7 39 0
-118 7 -39 0
118 -7 -39 0
-119 7 40 0
-119 -7 40 0
-119 7 -40 0
119 -7 -40 0
-120 7 41 0
-120 -7 41 0
-120 7 -41 0
120 -7 -41 0
-121 8 42 0
-121 -8 42 0
-121 8 -42 0
121 -8 -42 0
-122 8 43 0
-122 -8 43 0
-122 8 -43 0
122 -8 -43 0
-123 8 44 0
-123 -8 44 0
-123 8 -44 0
123 -8 -44 0
-124 8 45 0
-124 -8 45 0
-124 8 -45 0
124 -8 -45 0
-125 9 46 0
-125 -9 46 0
-125 9 -46 0
125 -9 -46 0
-126 9 47 0
-126 -9 47 0
-126 9 -47 0
126 -9 -47 0
-127 9 48 0
-127 -9 48 0
-127 9 -48 0
127 -9 -48 0
-128 9 49 0
-128 -9 49 0
-128 9 -49 0
128 -9 -49 0
-129 10 50 0
-129 -10 50 0
-129 10 -50 0
129 -10 -50 0
-130 10 51 0
-130 -10 51 0
-130 10 -51 0
130 -10 -51 0
-131 10 52 0
-131 -10 52 0
-131 10 -52 0
131 -10 -52 0
-132 10 53 0
-132 -10 53 0
-132 10 -53 0
132 -10 -53 0
-133 11 54 0
-133 -11 54 0
-133 11 -54 0
133 -11 -54 0
-134 11 55 0
-134 -11 55 0
-134 11 -55 0
134 -11 -55 0
-135 11 56 0
-135 -11 56 0
-135 11 -56 0
135 -11 -56 0
-136 11 57 0
-136 -11 57 0
-136 11 -57 0
136 -11 -57 0
-137 12 58 0
-137 -12 58 0
-137 12 -58 0
137 -12 -58 0
-138 12 59 0
-138 -12 59 0
-138 12 -59 0
138 -12 -59 0
-139 12 60 0
-139 -12 60 0
-139 12 -60 0
139 -12 -60 0
-140 12 61 0
-140 -12 61 0
-140 12 -61 0
140 -12 -61 0
-141 13 62 0
-141 -13 62 0
-141 13 -62 0
141 -13 -62 0
-142 13 63 0
-142 -13 63 0
-142 13 -63 0
142 -13 -63 0
-143 13 64 0
-143 -13 64 0
-143 13 -64 0
143 -13 -64 0
-144 13 65 0
-144 -13 65 0
-144 13 -65 0
144 -13 -65 0
-145 14 66 0
-145 -14 66 0
-145 14 -66 0
145 -14 -66 0
-146 14 67 0
-146 -14 67 0
-146 14 -67 0
146 -14 -67 0
-147 14 68 0
-147 -14 68 0
-147 14 -68 0
147 -14 -68 0
-148 14 69 0
-148 -14 69 0
-148 14 -69 0
148 -14 -69 0
-149 15 70 0
-149 -15 70 0
-149 15 -70 0
149 -15 -70 0
-150 15 71 0
-150 -15 71 0
-150 15 -71 0
150 -15 -71 0
-151 15 72 0
-151 -15 72 0
-151 15 -72 0
151 -15 -72 0
-152 15 73 0
-152 -15 73 0
-152 15 -73 0
152 -15 -73 0
-153 15 74 0
-153 -15 74 0
-153 15 -74 0
153 -15 -74 0
-154 16 75 0
-154 -16 75 0
-154 16 -75 0
154 -16 -75 0
-155 16 76 0
-155 -16 76 0
-155 16 -76 0
155 -16 -76 0
-156 16 77 0
-156 -16 77 0
-156 16 -77 0
156 -16 -77 0
-157 16 78 0
-157 -16 78 0
-157 16 -78 0
157 -16 -78 0
-158 16 79 0
-158 -16 79 0
-158 16 -79 0
158 -16 -79 0
-159 17 80 0
-159 -17 80 0
-159 17 -80 0
159 -17 -80 0
-160 17 81 0
-160 -17 81 0
-160 17 -81 0
160 -17 -81 0
-161 17 82 0
-161 -17 82 0
-161 17 -82 0
161 -17 -82 0
-162 17 83 0
-162 -17 83 0
-162 17 -83 0
162 -17 -83 0
-163 17 84 0
-163 -17 84 0
-163 17 -84 0
163 -17 -84 0
-164 18 85 0
-164 -18 85 0
-164 18 -85 0
164 -18 -85 0
-165 18 86 0
-165 -18 86 0
-165 18 -86 0
165 -18 -86 0
-166 18 87 0
-166 -18 87 0
-166 18 -87 0
166 -18 -87 0
-167 18 88 0
-167 -18 88 0
-167 18 -88 0
167 -18 -88 0
-168 18 89 0
-168 -18 89 0
-168 18 -89 0
168 -18 -89 0
-169 19 90 0
-169 -19 90 0
-169 19 -90 0
169 -19 -90 0
-170 19 91 0
-170 -19 91 0
-170 19 -91 0
170 -19 -91 0
-171 19 92 0
-171 -19 92 0
-171 19 -92 0
171 -19 -92 0
-172 19 93 0
-172 -19 93 0
-172 19 -93 0
172 -19 -93 0
-173 19 94 0
-173 -19 94 0
-173 19 -94 0
173 -19 -94 0
-174 20 95 0
-174 -20 95 0
-174 20 -95 0
174 -20 -95 0
-175 20 96 0
-175 -20 96 0
-175 20 -96 0
175 -20 -96 0
-176 20 97 0
-176 -20 97 0
-176 20 -97 0
176 -20 -97 0
-177 20 98 0
-177 -20 98 0
-177 20 -98 0
177 -20 -98 0
-178 20 99 0
-178 -20 99 0
-178 20 -99 0
178 -20 -99 0
-179 100 0
179 -100 0
-180 101 0
180 -101 0
-181 179 102 0
181 -179 102 0
181 179 -102 0
-181 -179 -102 0
-184 179 102 0
-184 -179 102 0
-184 179 -102 0
184 -179 -102 0
-182 184 180 103 0
182 -184 180 103 0
182 184 -180 103 0
-182 -184 -180 103 0
182 184 180 -103 0
-182 -184 180 -103 0
-182 184 -180 -103 0
182 -184 -180 -103 0
-185 180 103 184 0
-185 -180 103 184 0
-185 180 -103 184 0
185 -180 -103 184 0
-185 180 103 -184 0
185 -180 103 -184 0
185 180 -103 -184 0
185 -180 -103 -184 0
-183 185 0
183 -185 0
-186 181 105 0
186 -181 105 0
186 181 -105 0
-186 -181 -105 0
-190 181 105 0
-190 -181 105 0
-190 181 -105 0
190 -181 -105 0
-187 190 182 106 0
187 -190 182 106 0
187 190 -182 106 0
-187 -190 -182 106 0
187 190 182 -106 0
-187 -190 182 -106 0
-187 190 -182 -106 0
187 -190 -182 -106 0
-191 182 106 190 0
-191 -182 106 190 0
-191 182 -106 190 0
191 -182 -106 190 0
-191 182 106 -190 0
191 -182 106 -190 0
191 182 -106 -190 0
191 -182 -106 -190 0
-188 191 183 107 0
188 -191 183 107 0
188 191 -183 107 0
-188 -191 -183 107 0
188 191 183 -107 0
-188 -191 183 -107 0
-188 191 -183 -107 0
188 -191 -183 -107 0
-192 183 107 191 0
-192 -183 107 191 0
-192 183 -107 191 0
192 -183 -107 191 0
-192 183 107 -191 0
192 -183 107 -191 0
192 183 -107 -191 0
192 -183 -107 -191 0
-189 192 0
189 -192 0
-193 186 108 0
193 -186 108 0
193 186 -108 0
-193 -186 -108 0
-197 186 108 0
-197 -186 108 0
-197 186 -108 0
197 -186 -108 0
-194 197 187 109 0
194 -197 187 109 0
194 197 -187 109 0
-194 -197 -187 109 0
194 197 187 -109 0
-194 -197 187 -109 0
-194 197 -187 -109 0
194 -197 -187 -109 0
-198 187 109 197 0
-198 -187 109 197 0
-198 187 -109 197 0
198 -187 -109 197 0
-198 187 109 -197 0
198 -187 109 -197 0
198 187 -109 -197 0
198 -187 -109 -197 0
-195 198 188 110 0
195 -198 188 110 0
195 198 -188 110 0
-195 -198 -188 110 0
195 198 188 -110 0
-195 -198 188 -110 0
-195 198 -188 -110 0
195 -198 -188 -110 0
-199 188 110 198 0
-199 -188 110 198 0
-199 188 -110 198 0
199 -188 -110 198 0
-199 188 110 -198 0
199 -188 110 -198 0
199 188 -110 -198 0
199 -188 -110 -198 0
-196 199 189 0
196 -199 189 0
196 199 -189 0
-196 -199 -189 0
-200 199 189 0
-200 -199 189 0
-200 199 -189 0
200 -199 -189 0
-201 193 111 0
201 -193 111 0
201 193 -111 0
-201 -193 -111 0
-206 193 111 0
-206 -193 111 0
-206 193 -111 0
206 -193 -111 0
-202 206 194 112 0
202 -206 194 112 0
202 206 -194 112 0
-202 -206 -194 112 0
202 206 194 -112 0
-202 -206 194 -112 0
-202 206 -194 -112 0
202 -206 -194 -112 0
-207 194 112 206 0
-207 -194 112 206 0
-207 194 -112 206 0
207 -194 -112 206 0
-207 194 112 -206 0
207 -194 112 -206 0
207 194 -112 -206 0
207 -194 -112 -206 0
-203 207 195 113 0
203 -207 195 113 0
203 207 -195 113 0
-203 -207 -195 113 0
203 207 195 -113 0
-203 -207 195 -113 0
-203 207 -195 -113 0
203 -207 -195 -113 0
-208 195 113 207 0
-208 -195 113 207 0
-208 195 -113 207 0
208 -195 -113 207 0
-208 195 113 -207 0
208 -195 113 -207 0
208 195 -113 -207 0
208 -195 -113 -207 0
-204 208 196 0
204 -208 196 0
204 208 -196 0
-204 -208 -196 0
-209 208 196 0
-209 -208 196 0
-209 208 -196 0
209 -208 -196 0
-205 209 0
205 -209 0
-210 201 114 0
210 -201 114 0
210 201 -114 0
-210 -201 -114 0
-215 201 114 0
-215 -201 114 0
-215 201 -114 0
215 -201 -114 0
-211 215 202 115 0
211 -215 202 115 0
211 215 -202 115 0
-211 -215 -202 115 0
211 215 202 -115 0
-211 -215 202 -115 0
-211 215 -202 -115 0
211 -215 -202 -115 0
-216 202 115 215 0
-216 -202 115 215 0
-216 202 -115 215 0
216 -202 -115 215 0
-216 202 115 -215 0
216 -202 115 -215 0
216 202 -115 -215 0
216 -202 -115 -215 0
-212 216 203 116 0
212 -216 203 116 0
212 216 -203 116 0
-212 -216 -203 116 0
212 216 203 -116 0
-212 -216 203 -116 0
-212 216 -203 -116 0
212 -216 -203 -116 0
-217 203 116 216 0
-217 -203 116 216 0
-217 203 -116 216 0
217 -203 -116 216 0
-217 203 116 -216 0
217 -203 116 -216 0
217 203 -116 -216 0
217 -203 -116 -216 0
-213 217 204 0
213 -217 204 0
213 217 -204 0
-213 -217 -204 0
-218 217 204 0
-218 -217 204 0
-218 217 -204 0
218 -217 -204 0
-214 218 205 0
214 -218 205 0
214 218 -205 0
-214 -218 -205 0
-219 218 205 0
-219 -218 205 0
-219 218 -205 0
219 -218 -205 0
-220 210 117 0
220 -210 117 0
220 210 -117 0
-220 -210 -117 0
-226 210 117 0
-226 -210 117 0
-226 210 -117 0
226 -210 -117 0
-221 226 211 118 0
221 -226 211 118 0
221 226 -211 118 0
-221 -226 -211 118 0
221 226 211 -118 0
-221 -226 211 -118 0
-221 226 -211 -118 0
221 -226 -211 -118 0
-227 211 118 226 0
-227 -211 118 226 0
-227 211 -118 226 0
227 -211 -118 226 0
-227 211 118 -226 0
227 -211 118 -226 0
227 211 -118 -226 0
227 -211 -118 -226 0
-222 227 212 119 0
222 -227 212 119 0
222 227 -212 119 0
-222 -227 -212 119 0
222 227 212 -119 0
-222 -227 212 -119 0
-222 227 -212 -119 0
222 -227 -212 -119 0
-228 212 119 227 0
-228 -212 119 227 0
-228 212 -119 227 0
228 -212 -119 227 0
-228 212 119 -227 0
228 -212 119 -227 0
228 212 -119 -227 0
228 -212 -119 -227 0
-223 228 213 120 0
223 -228 213 120 0
223 228 -213 120 0
-223 -228 -213 120 0
223 228 213 -120 0
-223 -228 213 -120 0
-223 228 -213 -120 0
223 -228 -213 -120 0
-229 213 120 228 0
-229 -213 120 228 0
-229 213 -120 228 0
229 -213 -120 228 0
-229 213 120 -228 0
229 -213 120 -228 0
229 213 -120 -228 0
229 -213 -120 -228 0
-224 229 214 0
224 -229 214 0
224 229 -214 0
-224 -229 -214 0
-230 229 214 0
-230 -229 214 0
-230 229 -214 0
230 -229 -214 0
-225 230 0
225 -230 0
-231 220 121 0
231 -220 121 0
231 220 -121 0
-231 -220 -121 0
-237 220 121 0
-237 -220 121 0
-237 220 -121 0
237 -220 -121 0
-232 237 221 122 0
232 -237 221 122 0
232 237 -221 122 0
-232 -237 -221 122 0
232 237 221 -122 0
-232 -237 221 -122 0
-232 237 -221 -122 0
232 -237 -221 -122 0
-238 221 122 237 0
-238 -221 122 237 0
-238 221 -122 237 0
238 -221 -122 237 0
-238 221 122 -237 0
238 -221 122 -237 0
238 221 -122 -237 0
238 -221 -122 -237 0
-233 238 222 123 0
233 -238 222 123 0
233 238 -222 123 0
-233 -238 -222 123 0
233 238 222 -123 0
-233 -238 222 -123 0
-233 238 -222 -123 0
233 -238 -222 -123 0
-239 222 123 238 0
-239 -222 123 238 0
-239 222 -123 238 0
239 -222 -123 238 0
-239 222 123 -238 0
239 -222 123 -238 0
239 222 -123 -238 0
239 -222 -123 -238 0
-234 239 223 124 0
234 -239 223 124 0
234 239 -223 124 0
-234 -239 -223 124 0
234 239 223 -124 0
-234 -239 223 -124 0
-234 239 -223 -124 0
234 -239 -223 -124 0
-240 223 124 239 0
-240 -223 124 239 0
-240 223 -124 239 0
240 -223 -124 239 0
-240 223 124 -239 0
240 -223 124 -239 0
240 223 -124 -239 0
240 -223 -124 -239 0
-235 240 224 0
235 -240 224 0
235 240 -224 0
-235 -240 -224 0
-241 240 224 0
-241 -240 224 0
-241 240 -224 0
241 -240 -224 0
-236 241 225 0
236 -241 225 0
236 241 -225 0
-236 -241 -225 0
-242 241 225 0
-242 -241 225 0
-242 241 -225 0
242 -241 -225 0
-243 231 125 0
243 -231 125 0
243 231 -125 0
-243 -231 -125 0
-249 231 125 0
-249 -231 125 0
-249 231 -125 0
249 -231 -125 0
-244 249 232 126 0
244 -249 232 126 0
244 249 -232 126 0
-244 -249 -232 126 0
244 249 232 -126 0
-244 -249 232 -126 0
-244 249 -232 -126 0
244 -249 -232 -126 0
-250 232 126 249 0
-250 -232 126 249 0
-250 232 -126 249 0
250 -232 -126 249 0
-250 232 126 -249 0
250 -232 126 -249 0
250 232 -126 -249 0
250 -232 -126 -249 0
-245 250 233 127 0
245 -250 233 127 0
245 250 -233 127 0
-245 -250 -233 127 0
245 250 233 -127 0
-245 -250 233 -127 0
-245 250 -233 -127 0
245 -250 -233 -127 0
-251 233 127 250 0
-251 -233 127 250 0
-251 233 -127 250 0
251 -233 -127 250 0
-251 233 127 -250 0
251 -233 127 -250 0
251 233 -127 -250 0
251 -233 -127 -250 0
-246 251 234 128 0
246 -251 234 128 0
246 251 -234 128 0
-246 -251 -234 128 0
246 251 234 -128 0
-246 -251 234 -128 0
-246 251 -234 -128 0
246 -251 -234 -128 0
-252 234 128 251 0
-252 -234 128 251 0
-252 234 -128 251 0
252 -234 -128 251 0
-252 234 128 -251 0
252 -234 128 -251 0
252 234 -128 -251 0
252 -234 -128 -251 0
-247 252 235 0
247 -252 235 0
247 252 -235 0
-247 -252 -235 0
-253 252 235 0
-253 -252 235 0
-253 252 -235 0
253 -252 -235 0
-248 253 236 0
248 -253 236 0
248 253 -236 0
-248 -253 -236 0
-254 253 236 0
-254 -253 236 0
-254 253 -236 0
254 -253 -236 0
-255 243 129 0
255 -243 129 0
255 243 -129 0
-255 -243 -129 0
-262 243 129 0
-262 -243 129 0
-262 243 -129 0
262 -243 -129 0
-256 262 244 130 0
256 -262 244 130 0
256 262 -244 130 0
-256 -262 -244 130 0
256 262 244 -130 0
-256 -262 244 -130 0
-256 262 -244 -130 0
256 -262 -244 -130 0
-263 244 130 262 0
-263 -244 130 262 0
-263 244 -130 262 0
263 -244 -130 262 0
-263 244 130 -262 0
263 -244 130 -262 0
263 244 -130 -262 0
263 -244 -130 -262 0
-257 263 245 131 0
257 -263 245 131 0
257 263 -245 131 0
-257 -263 -245 131 0
257 263 245 -131 0
-257 -263 245 -131 0
-257 263 -245 -131 0
257 -263 -245 -131 0
-264 245 131 263 0
-264 -245 131 263 0
-264 245 -131 263 0
264 -245 -131 263 0
-264 245 131 -263 0
264 -245 131 -263 0
264 245 -131 -263 0
264 -245 -131 -263 0
-258 264 246 132 0
258 -264 246 132 0
258 264 -246 132 0
-258 -264 -246 132 0
258 264 246 -132 0
-258 -264 246 -132 0
-258 264 -246 -132 0
258 -264 -246 -132 0
-265 246 132 264 0
-265 -246 132 264 0
-265 246 -132 264 0
265 -246 -132 264 0
-265 246 132 -264 0
265 -246 132 -264 0
265 246 -132 -264 0
265 -246 -132 -264 0
-259 265 247 0
259 -265 247 0
259 265 -247 0
-259 -265 -247 0
-266 265 247 0
-266 -265 247 0
-266 265 -247 0
266 -265 -247 0
-260 266 248 0
260 -266 248 0
260 266 -248 0
-260 -266 -248 0
-267 266 248 0
-267 -266 248 0
-267 266 -248 0
267 -266 -248 0
-261 267 0
261 -267 0
-268 255 133 0
268 -255 133 0
268 255 -133 0
-268 -255 -133 0
-275 255 133 0
-275 -255 133 0
-275 255 -133 0
275 -255 -133 0
-269 275 256 134 0
269 -275 256 134 0
269 275 -256 134 0
-269 -275 -256 134 0
269 275 256 -134 0
-269 -275 256 -134 0
-269 275 -256 -134 0
269 -275 -256 -134 0
-276 256 134 275 0
-276 -256 134 275 0
-276 256 -134 275 0
276 -256 -134 275 0
-276 256 134 -275 0
276 -256 134 -275 0
276 256 -134 -275 0
276 -256 -134 -275 0
-270 276 257 135 0
270 -276 257 135 0
270 276 -257 135 0
-270 -276 -257 135 0
270 276 257 -135 0
-270 -276 257 -135 0
-270 276 -257 -135 0
270 -276 -257 -135 0
-277 257 135 276 0
-277 -257 135 276 0
-277 257 -135 276 0
277 -257 -135 276 0
-277 257 135 -276 0
277 -257 135 -276 0
277 257 -135 -276 0
277 -257 -135 -276 0
-271 277 258 136 0
271 -277 258 136 0
271 277 -258 136 0
-271 -277 -258 136 0
271 277 258 -136 0
-271 -277 258 -136 0
-271 277 -258 -136 0
271 -277 -258 -136 0
-278 258 136 277 0
-278 -258 136 277 0
-278 258 -136 277 0
278 -258 -136 277 0
-278 258 136 -277 0
278 -258 136 -277 0
278 258 -136 -277 0
278 -258 -136 -277 0
-272 278 259 0
272 -278 259 0
272 278 -259 0
-272 -278 -259 0
-279 278 259 0
-279 -278 259 0
-279 278 -259 0
279 -278 -259 0
-273 279 260 0
273 -279 260 0
273 279 -260 0
-273 -279 -260 0
-280 279 260 0
-280 -279 260 0
-280 279 -260 0
280 -279 -260 0
-274 280 261 0
274 -280 261 0
274 280 -261 0
-274 -280 -261 0
-281 280 261 0
-281 -280 261 0
-281 280 -261 0
281 -280 -261 0
-282 268 137 0
282 -268 137 0
282 268 -137 0
-282 -268 -137 0
-289 268 137 0
-289 -268 137 0
-289 268 -137 0
289 -268 -137 0
-283 289 269 138 0
283 -289 269 138 0
283 289 -269 138 0
-283 -289 -269 138 0
283 289 269 -138 0
-283 -289 269 -138 0
-283 289 -269 -138 0
283 -289 -269 -138 0
-290 269 138 289 0
-290 -269 138 289 0
-290 269 -138 289 0
290 -269 -138 289 0
-290 269 138 -289 0
290 -269 138 -289 0
290 269 -138 -289 0
290 -269 -138 -289 0
-284 290 270 139 0
284 -290 270 139 0
284 290 -270 139 0
-284 -290 -270 139 0
284 290 270 -139 0
-284 -290 270 -139 0
-284 290 -270 -139 0
284 -290 -270 -139 0
-291 270 139 290 0
-291 -270 139 290 0
-291 270 -139 290 0
291 -270 -139 290 0
-291 270 139 -290 0
291 -270 139 -290 0
291 270 -139 -290 0
291 -270 -139 -290 0
-285 291 271 140 0
285 -291 271 140 0
285 291 -271 140 0
-285 -291 -271 140 0
285 291 271 -140 0
-285 -291 271 -140 0
-285 291 -271 -140 0
285 -291 -271 -140 0
-292 271 140 291 0
-292 -271 140 291 0
-292 271 -140 291 0
292 -271 -140 291 0
-292 271 140 -291 0
292 -271 140 -291 0
292 271 -140 -291 0
292 -271 -140 -291 0
-286 292 272 0
286 -292 272 0
286 292 -272 0
-286 -292 -272 0
-293 292 272 0
-293 -292 272 0
-293 292 -272 0
293 -292 -272 0
-287 293 273 0
287 -293 273 0
287 293 -273 0
-287 -293 -273 0
-294 293 273 0
-294 -293 273 0
-294 293 -273 0
294 -293 -273 0
-288 294 274 0
288 -294 274 0
288 294 -274 0
-288 -294 -274 0
-295 294 274 0
-295 -294 274 0
-295 294 -274 0
295 -294 -274 0
-296 282 141 0
296 -282 141 0
296 282 -141 0
-296 -282 -141 0
-303 282 141 0
-303 -282 141 0
-303 282 -141 0
303 -282 -141 0
-297 303 283 142 0
297 -303 283 142 0
297 303 -283 142 0
-297 -303 -283 142 0
297 303 283 -142 0
-297 -303 283 -142 0
-297 303 -283 -142 0
297 -303 -283 -142 0
-304 283 142 303 0
-304 -283 142 303 0
-304 283 -142 303 0
304 -283 -142 303 0
-304 283 142 -303 0
304 -283 142 -303 0
304 283 -142 -303 0
304 -283 -142 -303 0
-298 304 284 143 0
298 -304 284 143 0
298 304 -284 143 0
-298 -304 -284 143 0
298 304 284 -143 0
-298 -304 284 -143 0
-298 304 -284 -143 0
298 -304 -284 -143 0
-305 284 143 304 0
-305 -284 143 304 0
-305 284 -143 304 0
305 -284 -143 304 0
-305 284 143 -304 0
305 -284 143 -304 0
305 284 -143 -304 0
305 -284 -143 -304 0
-299 305 285 144 0
299 -305 285 144 0
299 305 -285 144 0
-299 -305 -285 144 0
299 305 285 -144 0
-299 -305 285 -144 0
-299 305 -285 -144 0
299 -305 -285 -144 0
-306 285 144 305 0
-306 -285 144 305 0
-306 285 -144 305 0
306 -285 -144 305 0
-306 285 144 -305 0
306 -285 144 -305 0
306 285 -144 -305 0
306 -285 -144 -305 0
-300 306 286 0
300 -306 286 0
300 306 -286 0
-300 -306 -286 0
-307 306 286 0
-307 -306 286 0
-307 306 -286 0
307 -306 -286 0
-301 307 287 0
301 -307 287 0
301 307 -287 0
-301 -307 -287 0
-308 307 287 0
-308 -307 287 0
-308 307 -287 0
308 -307 -287 0
-302 308 288 0
302 -308 288 0
302 308 -288 0
-302 -308 -288 0
-309 308 288 0
-309 -308 288 0
-309 308 -288 0
309 -308 -288 0
-310 296 145 0
310 -296 145 0
310 296 -145 0
-310 -296 -145 0
-317 296 145 0
-317 -296 145 0
-317 296 -145 0
317 -296 -145 0
-311 317 297 146 0
311 -317 297 146 0
311 317 -297 146 0
-311 -317 -297 146 0
311 317 297 -146 0
-311 -317 297 -146 0
-311 317 -297 -146 0
311 -317 -297 -146 0
-318 297 146 317 0
-318 -297 146 317 0
-318 297 -146 317 0
318 -297 -146 317 0
-318 297 146 -317 0
318 -297 146 -317 0
318 297 -146 -317 0
318 -297 -146 -317 0
-312 318 298 147 0
312 -318 298 147 0
312 318 -298 147 0
-312 -318 -298 147 0
312 318 298 -147 0
-312 -318 298 -147 0
-312 318 -298 -147 0
312 -318 -298 -147 0
-319 298 147 318 0
-319 -298 147 318 0
-319 298 -147 318 0
319 -298 -147 318 0
-319 298 147 -318 0
319 -298 147 -318 0
319 298 -147 -318 0
319 -298 -147 -318 0
-313 319 299 148 0
313 -319 299 148 0
313 319 -299 148 0
-313 -319 -299 148 0
313 319 299 -148 0
-313 -319 299 -148 0
-313 319 -299 -148 0
313 -319 -299 -148 0
-320 299 148 319 0
-320 -299 148 319 0
-320 299 -148 319 0
320 -299 -148 319 0
-320 299 148 -319 0
320 -299 148 -319 0
320 299 -148 -319 0
320 -299 -148 -319 0
-314 320 300 0
314 -320 300 0
314 320 -300 0
-314 -320 -300 0
-321 320 300 0
-321 -320 300 0
-321 320 -300 0
321 -320 -300 0
-315 321 301 0
315 -321 301 0
315 321 -301 0
-315 -321 -301 0
-322 321 301 0
-322 -321 301 0
-322 321 -301 0
322 -321 -301 0
-316 322 302 0
316 -322 302 0
316 322 -302 0
-316 -322 -302 0
-323 322 302 0
-323 -322 302 0
-323 322 -302 0
323 -322 -302 0
-324 310 149 0
324 -310 149 0
324 310 -149 0
-324 -310 -149 0
-331 310 149 0
-331 -310 149 0
-331 310 -149 0
331 -310 -149 0
-325 331 311 150 0
325 -331 311 150 0
325 331 -311 150 0
-325 -331 -311 150 0
325 331 311 -150 0
-325 -331 311 -150 0
-325 331 -311 -150 0
325 -331 -311 -150 0
-332 311 150 331 0
-332 -311 150 331 0
-332 311 -150 331 0
332 -311 -150 331 0
-332 311 150 -331 0
332 -311 150 -331 0
332 311 -150 -331 0
332 -311 -150 -331 0
-326 332 312 151 0
326 -332 312 151 0
326 332 -312 151 0
-326 -332 -312 151 0
326 332 312 -151 0
-326 -332 312 -151 0
-326 332 -312 -151 0
326 -332 -312 -151 0
-333 312 151 332 0
-333 -312 151 332 0
-333 312 -151 332 0
333 -312 -151 332 0
-333 312 151 -332 0
333 -312 151 -332 0
333 312 -151 -332 0
333 -312 -151 -332 0
-327 333 313 152 0
327 -333 313 152 0
327 333 -313 152 0
-327 -333 -313 152 0
327 333 313 -152 0
-327 -333 313 -152 0
-327 333 -313 -152 0
327 -333 -313 -152 0
-334 313 152 333 0
-334 -313 152 333 0
-334 313 -152 333 0
334 -313 -152 333 0
-334 313 152 -333 0
334 -313 152 -333 0
334 313 -152 -333 0
334 -313 -152 -333 0
-328 334 314 153 0
328 -334 314 153 0
328 334 -314 153 0
-328 -334 -314 153 0
328 334 314 -153 0
-328 -334 314 -153 0
-328 334 -314 -153 0
328 -334 -314 -153 0
-335 314 153 334 0
-335 -314 153 334 0
-335 314 -153 334 0
335 -314 -153 334 0
-335 314 153 -334 0
335 -314 153 -334 0
335 314 -153 -334 0
335 -314 -153 -334 0
-329 335 315 0
329 -335 315 0
329 335 -315 0
-329 -335 -315 0
-336 335 315 0
-336 -335 315 0
-336 335 -315 0
336 -335 -315 0
-330 336 316 0
330 -336 316 0
330 336 -316 0
-330 -336 -316 0
-337 336 316 0
-337 -336 316 0
-337 336 -316 0
337 -336 -316 0
-338 324 154 0
338 -324 154 0
338 324 -154 0
-338 -324 -154 0
-346 324 154 0
-346 -324 154 0
-346 324 -154 0
346 -324 -154 0
-339 346 325 155 0
339 -346 325 155 0
339 346 -325 155 0
-339 -346 -325 155 0
339 346 325 -155 0
-339 -346 325 -155 0
-339 346 -325 -155 0
339 -346 -325 -155 0
-347 325 155 346 0
-347 -325 155 346 0
-347 325 -155 346 0
347 -325 -155 346 0
-347 325 155 -346 0
347 -325 155 -346 0
347 325 -155 -346 0
347 -325 -155 -346 0
-340 347 326 156 0
340 -347 326 156 0
340 347 -326 156 0
-340 -347 -326 156 0
340 347 326 -156 0
-340 -347 326 -156 0
-340 347 -326 -156 0
340 -347 -326 -156 0
-348 326 156 347 0
-348 -326 156 347 0
-348 326 -156 347 0
348 -326 -156 347 0
-348 326 156 -347 0
348 -326 156 -347 0
348 326 -156 -347 0
348 -326 -156 -347 0
-341 348 327 157 0
341 -348 327 157 0
341 348 -327 157 0
-341 -348 -327 157 0
341 348 327 -157 0
-341 -348 327 -157 0
-341 348 -327 -157 0
341 -348 -327 -157 0
-349 327 157 348 0
-349 -327 157 348 0
-349 327 -157 348 0
349 -327 -157 348 0
-349 327 157 -348 0
349 -327 157 -348 0
349 327 -157 -348 0
349 -327 -157 -348 0
-342 349 328 158 0
342 -349 328 158 0
342 349 -328 158 0
-342 -349 -328 158 0
342 349 328 -158 0
-342 -349 328 -158 0
-342 349 -328 -158 0
342 -349 -328 -158 0
-350 328 158 349 0
-350 -328 158 349 0
-350 328 -158 349 0
350 -328 -158 349 0
-350 328 158 -349 0
350 -328 158 -349 0
350 328 -158 -349 0
350 -328 -158 -349 0
-343 350 329 0
343 -350 329 0
343 350 -329 0
-343 -350 -329 0
-351 350 329 0
-351 -350 329 0
-351 350 -329 0
351 -350 -329 0
-344 351 330 0
344 -351 330 0
344 351 -330 0
-344 -351 -330 0
-352 351 330 0
-352 -351 330 0
-352 351 -330 0
352 -351 -330 0
-345 352 0
345 -352 0
-353 338 159 0
353 -338 159 0
353 338 -159 0
-353 -338 -159 0
-361 338 159 0
-361 -338 159 0
-361 338 -159 0
361 -338 -159 0
-354 361 339 160 0
354 -361 339 160 0
354 361 -339 160 0
-354 -361 -339 160 0
354 361 339 -160 0
-354 -361 339 -160 0
-354 361 -339 -160 0
354 -361 -339 -160 0
-362 339 160 361 0
-362 -339 160 361 0
-362 339 -160 361 0
362 -339 -160 361 0
-362 339 160 -361 0
362 -339 160 -361 0
362 339 -160 -361 0
362 -339 -160 -361 0
-355 362 340 161 0
355 -362 340 161 0
355 362 -340 161 0
-355 -362 -340 161 0
355 362 340 -161 0
-355 -362 340 -161 0
-355 362 -340 -161 0
355 -362 -340 -161 0
-363 340 161 362 0
-363 -340 161 362 0
-363 340 -161 362 0
363 -340 -161 362 0
-363 340 161 -362 0
363 -340 161 -362 0
363 340 -161 -362 0
363 -340 -161 -362 0
-356 363 341 162 0
356 -363 341 162 0
356 363 -341 162 0
-356 -363 -341 162 0
356 363 341 -162 0
-356 -363 341 -162 0
-356 363 -341 -162 0
356 -363 -341 -162 0
-364 341 162 363 0
-364 -341 162 363 0
-364 341 -162 363 0
364 -341 -162 363 0
-364 341 162 -363 0
364 -341 162 -363 0
364 341 -162 -363 0
364 -341 -162 -363 0
-357 364 342 163 0
357 -364 342 163 0
357 364 -342 163 0
-357 -364 -342 163 0
357 364 342 -163 0
-357 -364 342 -163 0
-357 364 -342 -163 0
357 -364 -342 -163 0
-365 342 163 364 0
-365 -342 163 364 0
-365 342 -163 364 0
365 -342 -163 364 0
-365 342 163 -364 0
365 -342 163 -364 0
365 342 -163 -364 0
365 -342 -163 -364 0
-358 365 343 0
358 -365 343 0
358 365 -343 0
-358 -365 -343 0
-366 365 343 0
-366 -365 343 0
-366 365 -343 0
366 -365 -343 0
-359 366 344 0
359 -366 344 0
359 366 -344 0
-359 -366 -344 0
-367 366 344 0
-367 -366 344 0
-367 366 -344 0
367 -366 -344 0
-360 367 345 0
360 -367 345 0
360 367 -345 0
-360 -367 -345 0
-368 367 345 0
-368 -367 345 0
-368 367 -345 0
368 -367 -345 0
-369 353 164 0
369 -353 164 0
369 353 -164 0
-369 -353 -164 0
-377 353 164 0
-377 -353 164 0
-377 353 -164 0
377 -353 -164 0
-370 377 354 165 0
370 -377 354 165 0
370 377 -354 165 0
-370 -377 -354 165 0
370 377 354 -165 0
-370 -377 354 -165 0
-370 377 -354 -165 0
370 -377 -354 -165 0
-378 354 165 377 0
-378 -354 165 377 0
-378 354 -165 377 0
378 -354 -165 377 0
-378 354 165 -377 0
378 -354 165 -377 0
378 354 -165 -377 0
378 -354 -165 -377 0
-371 378 355 166 0
371 -378 355 166 0
371 378 -355 166 0
-371 -378 -355 166 0
371 378 355 -166 0
-371 -378 355 -166 0
-371 378 -355 -166 0
371 -378 -355 -166 0
-379 355 166 378 0
-379 -355 166 378 0
-379 355 -166 378 0
379 -355 -166 378 0
-379 355 166 -378 0
379 -355 166 -378 0
379 355 -166 -378 0
379 -355 -166 -378 0
-372 379 356 167 0
372 -379 356 167 0
372 379 -356 167 0
-372 -379 -356 167 0
372 379 356 -167 0
-372 -379 356 -167 0
-372 379 -356 -167 0
372 -379 -356 -167 0
-380 356 167 379 0
-380 -356 167 379 0
-380 356 -167 379 0
380 -356 -167 379 0
-380 356 167 -379 0
380 -356 167 -379 0
380 356 -167 -379 0
380 -356 -167 -379 0
-373 380 357 168 0
373 -380 357 168 0
373 380 -357 168 0
-373 -380 -357 168 0
373 380 357 -168 0
-373 -380 357 -168 0
-373 380 -357 -168 0
373 -380 -357 -168 0
-381 357 168 380 0
-381 -357 168 380 0
-381 357 -168 380 0
381 -357 -168 380 0
-381 357 168 -380 0
381 -357 168 -380 0
381 357 -168 -380 0
381 -357 -168 -380 0
-374 381 358 0
374 -381 358 0
374 381 -358 0
-374 -381 -358 0
-382 381 358 0
-382 -381 358 0
-382 381 -358 0
382 -381 -358 0
-375 382 359 0
375 -382 359 0
375 382 -359 0
-375 -382 -359 0
-383 382 359 0
-383 -382 359 0
-383 382 -359 0
383 -382 -359 0
-376 383 360 0
376 -383 360 0
376 383 -360 0
-376 -383 -360 0
-384 383 360 0
-384 -383 360 0
-384 383 -360 0
384 -383 -360 0
-385 369 169 0
385 -369 169 0
385 369 -169 0
-385 -369 -169 0
-393 369 169 0
-393 -369 169 0
-393 369 -169 0
393 -369 -169 0
-386 393 370 170 0
386 -393 370 170 0
386 393 -370 170 0
-386 -393 -370 170 0
386 393 370 -170 0
-386 -393 370 -170 0
-386 393 -370 -170 0
386 -393 -370 -170 0
-394 370 170 393 0
-394 -370 170 393 0
-394 370 -170 393 0
394 -370 -170 393 0
-394 370 170 -393 0
394 -370 170 -393 0
394 370 -170 -393 0
394 -370 -170 -393 0
-387 394 371 171 0
387 -394 371 171 0
387 394 -371 171 0
-387 -394 -371 171 0
387 394 371 -171 0
-387 -394 371 -171 0
-387 394 -371 -171 0
387 -394 -371 -171 0
-395 371 171 394 0
-395 -371 171 394 0
-395 371 -171 394 0
395 -371 -171 394 0
-395 371 171 -394 0
395 -371 171 -394 0
395 371 -171 -394 0
395 -371 -171 -394 0
-388 395 372 172 0
388 -395 372 172 0
388 395 -372 172 0
-388 -395 -372 172 0
388 395 372 -172 0
-388 -395 372 -172 0
-388 395 -372 -172 0
388 -395 -372 -172 0
-396 372 172 395 0
-396 -372 172 395 0
-396 372 -172 395 0
396 -372 -172 395 0
-396 372 172 -395 0
396 -372 172 -395 0
396 372 -172 -395 0
396 -372 -172 -395 0
-389 396 373 173 0
389 -396 373 173 0
389 396 -373 173 0
-389 -396 -373 173 0
389 396 373 -173 0
-389 -396 373 -173 0
-389 396 -373 -173 0
389 -396 -373 -173 0
-397 373 173 396 0
-397 -373 173 396 0
-397 373 -173 396 0
397 -373 -173 396 0
-397 373 173 -396 0
397 -373 173 -396 0
397 373 -173 -396 0
397 -373 -173 -396 0
-390 397 374 0
390 -397 374 0
390 397 -374 0
-390 -397 -374 0
-398 397 374 0
-398 -397 374 0
-398 397 -374 0
398 -397 -374 0
-391 398 375 0
391 -398 375 0
391 398 -375 0
-391 -398 -375 0
-399 398 375 0
-399 -398 375 0
-399 398 -375 0
399 -398 -375 0
-392 399 376 0
392 -399 376 0
392 399 -376 0
-392 -399 -376 0
-400 399 376 0
-400 -399 376 0
-400 399 -376 0
400 -399 -376 0
-401 385 174 0
401 -385 174 0
401 385 -174 0
-401 -385 -174 0
-409 385 174 0
-409 -385 174 0
-409 385 -174 0
409 -385 -174 0
-402 409 386 175 0
402 -409 386 175 0
402 409 -386 175 0
-402 -409 -386 175 0
402 409 386 -175 0
-402 -409 386 -175 0
-402 409 -386 -175 0
402 -409 -386 -175 0
-410 386 175 409 0
-410 -386 175 409 0
-410 386 -175 409 0
410 -386 -175 409 0
-410 386 175 -409 0
410 -386 175 -409 0
410 386 -175 -409 0
410 -386 -175 -409 0
-403 410 387 176 0
403 -410 387 176 0
403 410 -387 176 0
-403 -410 -387 176 0
403 410 387 -176 0
-403 -410 387 -176 0
-403 410 -387 -176 0
403 -410 -387 -176 0
-411 387 176 410 0
-411 -387 176 410 0
-411 387 -176 410 0
411 -387 -176 410 0
-411 387 176 -410 0
411 -387 176 -410 0
411 387 -176 -410 0
411 -387 -176 -410 0
-404 411 388 177 0
404 -411 388 177 0
404 411 -388 177 0
-404 -411 -388 177 0
404 411 388 -177 0
-404 -411 388 -177 0
-404 411 -388 -177 0
404 -411 -388 -177 0
-412 388 177 411 0
-412 -388 177 411 0
-412 388 -177 411 0
412 -388 -177 411 0
-412 388 177 -411 0
412 -388 177 -411 0
412 388 -177 -411 0
412 -388 -177 -411 0
-405 412 389 178 0
405 -412 389 178 0
405 412 -389 178 0
-405 -412 -389 178 0
405 412 389 -178 0
-405 -412 389 -178 0
-405 412 -389 -178 0
405 -412 -389 -178 0
-413 389 178 412 0
-413 -389 178 412 0
-413 389 -178 412 0
413 -389 -178 412 0
-413 389 178 -412 0
413 -389 178 -412 0
413 389 -178 -412 0
413 -389 -178 -412 0
-406 413 390 0
406 -413 390 0
406 413 -390 0
-406 -413 -390 0
-414 413 390 0
-414 -413 390 0
-414 413 -390 0
414 -413 -390 0
-407 414 391 0
407 -414 391 0
407 414 -391 0
-407 -414 -391 0
-415 414 391 0
-415 -414 391 0
-415 414 -391 0
415 -414 -391 0
-408 415 392 0
408 -415 392 0
408 415 -392 0
-408 -415 -392 0
-416 415 392 0
-416 -415 392 0
-416 415 -392 0
416 -415 -392 0
401 0
402 0
-403 0
404 0
405 0
406 0
407 0
-408 0
